CMD:
./solvers/bin/cadical --plain --no-reduce -t 1600 ./data/cnfs//oski15a01b45s/oski15a01b45s.57.cnf

c --- [ banner ] -------------------------------------------------------------
c 
c CaDiCaL SAT Solver
c Copyright (c) 2016-2024
c A. Biere, M. Fleury, N. Froleyks, K. Fazekas, F. Pollitt, T. Faller
c JKU Linz, University of Freiburg, TU Wien
c 
c Version 2.1.3 5296d3d2a9bf48c154ab2acb5e44625776d821bf
c g++ (Gentoo 12.3.1_p20230526 p2) 12.3.1 20230526 -Wall -Wextra -O3 -DNDEBUG
c Sat Aug 9 07:26:21 PDT 2025 Linux cedar2.int.cedar.computecanada.ca 5.14.0-362.24.2.el9_3.x86_64 x86_64
c 
c --- [ limit ] --------------------------------------------------------------
c 
c setting time limit to 1600 seconds real time (due to '-t 1600')
c 
c --- [ parsing input ] ------------------------------------------------------
c 
c reading DIMACS file from './data/cnfs//oski15a01b45s/oski15a01b45s.57.cnf'
c opening file to read './data/cnfs//oski15a01b45s/oski15a01b45s.57.cnf'
c found 'p cnf 18677066 53351669' header
c parsed 53351669 clauses in 9.65 seconds process time
c 
c --- [ options ] ------------------------------------------------------------
c 
c   --compact=false                (different from default 'true')
c   --decompose=false              (different from default 'true')
c   --deduplicate=false            (different from default 'true')
c   --elim=false                   (different from default 'true')
c   --probe=false                  (different from default 'true')
c   --reduce=false                 (different from default 'true')
c   --subsume=false                (different from default 'true')
c   --ternary=false                (different from default 'true')
c   --transred=false               (different from default 'true')
c   --vivify=false                 (different from default 'true')
c 
c --- [ solving ] ------------------------------------------------------------
c 
c time measured in process time since initialization
c 
c  seconds    reductions  redundant   irredundant
c          MB     restarts       trail          variables
c            level   conflicts       glue              remaining
c 
c *  9.65 8022  0 0   0    0    0  0% 0 50755815 15089660 81%
c { 12.75 8140  0 0   0    0    0  0% 0 50755815 15089660 81%
c i 16.75 8150 8869 0  23  129  128 23% 3 50755815 15089659 81%
c i 16.76 8150 8802 0  24  130  128 23% 3 50755815 15089658 81%
c i 16.77 8150 8418 0  24  137  132 23% 3 50755815 15089657 81%
c i 16.77 8150 8180 0  24  141  134 23% 3 50755815 15089656 81%
c i 16.77 8150 7640 0  24  154  141 23% 3 50755815 15089655 81%
c i 16.77 8150 7444 0  24  158  143 22% 3 50755815 15089654 81%
c i 16.77 8150 6913 0  24  173  152 22% 3 50755815 15089653 81%
c i 16.77 8150 6752 0  24  177  154 22% 3 50755815 15089652 81%
c i 16.78 8150 6312 0  24  192  163 22% 3 50755815 15089651 81%
c i 16.78 8150 6178 0  24  196  165 22% 3 50755815 15089650 81%
c i 16.78 8150 5809 0  24  211  174 22% 3 50755815 15089649 81%
c i 16.78 8150 5695 0  24  215  176 22% 3 50755815 15089648 81%
c i 16.78 8150 5380 0  24  230  185 22% 3 50755815 15089647 81%
c i 16.78 8150 5283 0  24  234  187 22% 3 50755815 15089646 81%
c i 16.78 8150 5054 0  24  247  194 22% 3 50755815 15089645 81%
c i 16.78 8150 4968 0  24  251  196 22% 3 50755815 15089644 81%
c i 16.79 8150 4766 0  24  264  203 21% 3 50755815 15089643 81%
c i 16.79 8150 4689 0  24  268  205 21% 3 50755815 15089642 81%
c 
c  seconds      reductions  redundant   irredundant
c          MB       restarts       trail          variables
c             level    conflicts       glue              remaining
c 
c i 16.79 8151 4509 0  24  281  212 21% 2 50755815 15089641 81%
c i 16.79 8151 4440 0  24  285  214 21% 2 50755815 15089640 81%
c i 16.79 8151 4278 0  24  298  221 21% 2 50755815 15089639 81%
c i 16.79 8151 4216 0  24  302  223 21% 2 50755815 15089638 81%
c i 16.79 8151 4070 0  24  315  230 21% 2 50755815 15089637 81%
c i 16.79 8151 4014 0  24  319  232 21% 2 50755815 15089636 81%
c i 16.80 8151 3881 0  24  332  239 21% 2 50755815 15089635 81%
c i 16.80 8151 3830 0  24  336  241 21% 2 50755815 15089634 81%
c i 16.80 8151 3709 0  24  349  248 21% 2 50755815 15089633 81%
c i 16.80 8151 3663 0  24  353  250 21% 2 50755815 15089632 81%
c i 16.80 8151 3552 0  24  366  257 21% 2 50755815 15089631 81%
c i 16.80 8151 3509 0  24  370  259 21% 2 50755815 15089630 81%
c i 16.80 8151 3407 0  24  383  266 21% 2 50755815 15089629 81%
c i 16.80 8151 3368 0  24  387  268 21% 2 50755815 15089628 81%
c i 16.80 8151 3274 0  24  400  275 21% 2 50755815 15089627 81%
c i 16.80 8151 3237 0  24  404  277 21% 2 50755815 15089626 81%
c i 16.80 8151 3150 0  24  417  284 21% 2 50755815 15089625 81%
c i 16.80 8151 3117 0  24  421  286 21% 2 50755815 15089624 81%
c i 16.81 8151 3036 0  24  434  293 21% 2 50755815 15089623 81%
c i 16.81 8151 3005 0  24  438  295 21% 2 50755815 15089622 81%
c 
c  seconds      reductions  redundant   irredundant
c          MB       restarts       trail          variables
c             level    conflicts       glue              remaining
c 
c i 16.81 8151 2929 0  24  451  302 21% 2 50755815 15089621 81%
c i 16.81 8151 2900 0  24  455  304 21% 2 50755815 15089620 81%
c i 16.81 8151 2830 0  24  468  311 21% 2 50755815 15089619 81%
c i 16.81 8151 2803 0  24  472  313 21% 2 50755815 15089618 81%
... skipped 2329512 lines ...
v -18676665 18676666 18676667 -18676668 -18676669 -18676670 -18676671 18676672
v 18676673 -18676674 -18676675 18676676 -18676677 18676678 18676679 -18676680
v -18676681 18676682 -18676683 18676684 18676685 -18676686 -18676687 18676688
v -18676689 18676690 18676691 -18676692 -18676693 18676694 -18676695 18676696
v 18676697 -18676698 -18676699 18676700 -18676701 18676702 18676703 -18676704
v -18676705 18676706 -18676707 18676708 18676709 -18676710 -18676711 18676712
v -18676713 18676714 18676715 -18676716 -18676717 18676718 -18676719 18676720
v 18676721 -18676722 -18676723 18676724 -18676725 18676726 18676727 -18676728
v -18676729 18676730 -18676731 18676732 18676733 -18676734 -18676735 18676736
v -18676737 18676738 18676739 -18676740 -18676741 18676742 -18676743 18676744
v 18676745 -18676746 -18676747 18676748 -18676749 18676750 18676751 -18676752
v -18676753 18676754 -18676755 18676756 18676757 -18676758 -18676759 18676760
v -18676761 18676762 18676763 -18676764 -18676765 18676766 -18676767 18676768
v 18676769 -18676770 -18676771 18676772 -18676773 18676774 18676775 -18676776
v -18676777 18676778 -18676779 18676780 18676781 -18676782 -18676783 18676784
v -18676785 18676786 18676787 -18676788 -18676789 18676790 -18676791 18676792
v 18676793 -18676794 -18676795 18676796 -18676797 18676798 18676799 -18676800
v -18676801 18676802 -18676803 18676804 18676805 -18676806 -18676807 18676808
v -18676809 18676810 18676811 -18676812 -18676813 18676814 -18676815 18676816
v 18676817 -18676818 -18676819 18676820 -18676821 18676822 18676823 -18676824
v -18676825 18676826 -18676827 18676828 18676829 -18676830 -18676831 18676832
v -18676833 18676834 18676835 -18676836 -18676837 18676838 -18676839 18676840
v 18676841 -18676842 -18676843 18676844 -18676845 18676846 18676847 -18676848
v -18676849 18676850 -18676851 18676852 18676853 -18676854 -18676855 18676856
v -18676857 18676858 18676859 -18676860 -18676861 18676862 -18676863 18676864
v 18676865 -18676866 -18676867 18676868 -18676869 18676870 18676871 -18676872
v -18676873 18676874 -18676875 18676876 18676877 -18676878 -18676879 18676880
v -18676881 18676882 18676883 -18676884 -18676885 18676886 -18676887 18676888
v 18676889 -18676890 -18676891 -18676892 -18676893 18676894 18676895 -18676896
v -18676897 -18676898 -18676899 18676900 18676901 -18676902 -18676903
v -18676904 -18676905 18676906 18676907 -18676908 -18676909 -18676910
v -18676911 18676912 18676913 -18676914 -18676915 -18676916 -18676917 18676918
v 18676919 -18676920 -18676921 -18676922 -18676923 -18676924 -18676925
v -18676926 18676927 -18676928 -18676929 18676930 -18676931 -18676932
v -18676933 18676934 18676935 -18676936 -18676937 18676938 -18676939 -18676940
v 18676941 -18676942 -18676943 18676944 -18676945 -18676946 18676947 -18676948
v -18676949 18676950 -18676951 -18676952 18676953 -18676954 -18676955 18676956
v -18676957 -18676958 18676959 -18676960 -18676961 18676962 -18676963
v -18676964 18676965 -18676966 -18676967 18676968 -18676969 -18676970 18676971
v -18676972 -18676973 18676974 -18676975 -18676976 -18676977 18676978
v -18676979 -18676980 18676981 -18676982 -18676983 -18676984 18676985 18676986
v -18676987 -18676988 18676989 -18676990 -18676991 18676992 -18676993
v -18676994 18676995 -18676996 -18676997 18676998 -18676999 -18677000 18677001
v -18677002 -18677003 18677004 -18677005 -18677006 18677007 -18677008
v -18677009 18677010 -18677011 -18677012 18677013 -18677014 -18677015 18677016
v -18677017 -18677018 18677019 -18677020 -18677021 18677022 -18677023
v -18677024 18677025 -18677026 -18677027 -18677028 -18677029 18677030 18677031
v -18677032 -18677033 -18677034 -18677035 18677036 -18677037 18677038 18677039
v -18677040 -18677041 -18677042 -18677043 -18677044 -18677045 18677046
v 18677047 -18677048 -18677049 -18677050 -18677051 -18677052 -18677053
v -18677054 18677055 -18677056 -18677057 -18677058 18677059 18677060 -18677061
v -18677062 -18677063 18677064 18677065 -18677066 0
c 
c --- [ run-time profiling ] -------------------------------------------------
c 
c process time taken by individual solving procedures
c (percentage relative to process time for solving)
c 
c        15.83  100.00% search
c         9.65   60.94% parse
c         8.28   52.29% stable
c         4.46   28.16% unstable
c         3.10   19.55% lucky
c         0.00    0.00% simplify
c   =================================
c        15.84   59.83% solve
c 
c last line shows process time for solving
c (percentage relative to total process time)
c 
c --- [ statistics ] ---------------------------------------------------------
c 
c chronological:               705        63.06 %  of conflicts
c conflicts:                  1118        70.60    per second
c decisions:                394658     24923.07    per second
c fixed:                   3587683        19.21 %  of all variables
c learned:                    1007        90.07 %  per conflict
c learned_lits:              24099       100.00 %  learned literals
c minimized:                     0         0.00 %  learned literals
c shrunken:                   8370        34.73 %  learned literals
c minishrunken:                127         0.53 %  learned literals
c otfs:                          4         0.36 %  of conflict
c propagations:           67552260         4.27 M  per second
c rephased:                      1      1118.00    interval
c restarts:                     92        12.15    interval
c stabilizing:                   1        10.55 %  of conflicts
c subsumed:                     73         0.00 %  of all clauses
c strengthened:                  4         0.00 %  of all clauses
c 
c seconds are measured in process time for solving
c 
c --- [ resources ] ----------------------------------------------------------
c 
c total process time since initialization:        26.46    seconds
c total real time since initialization:           27.01    seconds
c maximum resident set size of process:         8199.62    MB
c 
c --- [ shutting down ] ------------------------------------------------------
c 
c exit 10
